c 15 promenne 225 klauzuli
c weights 3 9 2 7 3 1 2 6 1 8 5 5 9 7 2
p cnf 15 225
-1 -2 -8 9 10 -12 14 -15 0
-1 -2 7 -9 14 15 0
2 -3 4 5 -6 8 -9 -11 -12 14 15 0
4 5 -9 -10 11 -12 -13 -15 0
-2 3 4 5 -6 7 -8 -9 10 -12 13 14 0
2 -3 6 -7 8 -9 -10 -12 -13 -14 0
1 3 6 7 8 -9 -11 -12 0
1 -2 3 4 -5 7 8 -13 -15 0
1 2 3 4 -6 -7 9 13 14 15 0
-1 -4 7 8 9 11 -12 -14 -15 0
1 -2 5 8 -12 13 15 0
1 -3 -4 6 7 9 10 -11 12 -13 15 0
1 2 3 5 -6 7 9 14 0
-3 4 6 -7 8 9 -10 -12 13 14 0
-2 -4 -5 6 -11 12 0
-1 -3 -4 5 -7 8 9 11 12 13 -15 0
-1 3 4 5 -10 12 13 -14 0
1 2 3 -4 5 -11 -12 13 14 0
-2 -3 -4 -6 7 8 10 11 14 -15 0
-2 3 -4 5 -8 9 -10 -12 0
3 4 6 -7 -8 -10 -11 -13 14 15 0
1 -2 -3 -4 5 7 -8 -9 10 -11 12 13 -14 15 0
-1 3 -5 7 8 -10 -12 13 -14 0
-1 -2 3 4 5 6 9 -10 11 12 -13 -14 0
1 -2 -3 -5 6 -8 9 11 12 15 0
-1 2 6 -8 -10 -11 12 14 -15 0
-2 -6 7 8 -9 12 13 14 0
1 -5 7 -9 10 -12 -14 -15 0
-1 -2 -3 -4 -5 -6 7 8 9 -10 -11 12 13 0
1 -2 3 4 -5 -7 11 -12 14 15 0
1 2 -3 4 -6 -7 -8 12 13 0
-1 -3 4 12 14 0
1 -4 5 6 -7 -8 -12 -13 15 0
1 2 3 4 -5 6 -7 -8 -11 -13 15 0
3 4 5 -6 -7 -8 10 -12 14 -15 0
-1 3 -4 6 -7 -8 9 -11 12 -13 14 15 0
-1 -3 4 6 -8 9 -10 11 12 13 -14 15 0
1 2 3 -6 -7 -9 -10 -11 12 14 15 0
1 -2 -3 -4 8 -9 -11 -12 13 15 0
-1 3 4 5 6 7 9 10 11 12 14 -15 0
-1 2 3 4 -5 6 7 -8 -10 -11 12 13 -15 0
-2 -3 5 6 7 -8 -9 11 -12 13 14 0
-1 3 -4 6 -8 -9 10 11 -13 15 0
-1 4 -6 -8 -10 -12 -13 14 0
-1 5 6 7 -9 11 -12 -13 -14 15 0
-4 5 6 -8 -9 -10 13 14 15 0
1 -2 -3 4 6 7 -9 10 -11 -12 13 14 0
1 -4 -5 6 -7 -8 -11 -12 -15 0
2 5 -6 -7 8 10 11 13 15 0
1 3 5 6 -7 -8 -9 10 -11 -13 -14 -15 0
2 -4 5 -9 11 -13 14 -15 0
1 2 3 4 -5 -6 7 -8 10 -12 13 0
-1 3 5 -7 9 -11 -12 -13 -14 0
-3 -8 -11 12 -13 -14 -15 0
-1 -4 -6 8 12 -15 0
2 -3 -4 -6 -8 11 -12 13 -14 -15 0
-1 -3 5 6 -7 8 10 -12 -13 0
-3 6 -8 9 -11 12 13 0
1 -2 -3 4 5 -8 9 10 -11 0
-1 -2 3 4 -5 7 -8 10 -11 13 0
-2 5 6 -8 10 -11 12 -14 0
1 -3 4 -6 8 9 -11 -13 -14 -15 0
-1 3 4 6 -10 -11 13 -14 0
-2 3 -5 7 -9 -10 11 -12 13 -15 0
-1 -2 -6 -7 -10 12 13 14 -15 0
1 2 -3 4 -6 9 -11 -13 -15 0
1 -2 -5 -7 8 9 -10 12 -13 -14 -15 0
2 -4 6 7 8 -9 11 -12 0
-1 2 7 -8 -9 -11 -12 14 -15 0
-2 6 7 8 9 11 -12 13 -14 15 0
-1 -2 4 -6 -7 8 -9 -11 -12 -13 -14 15 0
1 -2 3 5 6 -7 8 11 -12 14 -15 0
-2 -4 -5 8 -9 -11 12 -14 15 0
1 2 3 4 -6 -7 8 9 -10 -11 12 0
-1 2 -3 -4 -5 -6 7 -8 -9 10 -13 -14 0
-1 2 3 5 6 -7 -8 -9 11 13 14 -15 0
-3 -4 6 7 -8 9 -10 11 -13 15 0
-1 -2 -4 5 6 -7 9 -12 13 15 0
3 5 6 -7 8 -10 12 -13 -14 -15 0
-1 -4 5 -6 8 10 -12 -14 -15 0
-1 -2 -3 -7 8 10 11 12 13 -14 -15 0
1 4 5 -6 -7 -8 -9 11 -12 -13 -14 15 0
-3 4 5 8 9 -10 -12 -14 -15 0
-2 -3 4 5 6 -7 -9 10 11 12 -13 -14 -15 0
-2 4 -5 -6 -7 -9 -10 12 -13 -15 0
1 2 3 -4 5 -6 9 -10 -12 -13 14 -15 0
1 3 5 -7 -8 -9 -11 -12 -13 14 15 0
2 -6 -7 -8 13 -14 -15 0
2 -6 7 10 12 -13 -14 0
4 -5 6 -7 9 11 13 -14 0
-1 -3 4 5 6 7 8 9 -10 12 0
-1 -2 4 -5 -6 -8 -9 -11 -13 14 0
1 -2 -4 5 6 9 -10 -13 15 0
2 3 5 -6 7 -8 9 10 13 -14 -15 0
-1 -2 4 5 6 -7 11 -13 15 0
-1 -2 -3 -5 6 -8 9 -10 -11 12 13 14 0
-1 -2 4 5 6 7 8 9 10 13 14 -15 0
-1 2 3 5 -6 -7 -8 -9 10 12 -13 -15 0
-1 4 6 -8 10 -12 13 14 15 0
1 -2 5 6 -7 -8 9 -11 -13 14 15 0
-3 4 5 -7 -8 9 11 -12 -14 -15 0
1 -2 3 6 -7 -8 -9 11 -12 13 14 0
-1 3 4 6 7 8 -9 -11 -12 13 0
1 -2 -4 -5 -6 7 -8 -9 -10 11 -14 0
1 2 3 -4 -5 -6 7 8 -12 0
1 2 -4 -5 -6 -7 8 -9 -10 12 0
-1 -3 -5 7 -9 10 -13 -14 15 0
4 5 -6 -7 8 12 -14 -15 0
-1 -2 -3 -4 -5 -7 -8 9 10 11 -14 -15 0
-1 2 3 4 5 8 -10 -12 14 0
-3 4 -6 10 -13 -14 15 0
-1 2 3 -4 -5 8 10 12 0
-3 -4 -5 -6 7 9 11 13 -14 -15 0
-1 -3 -4 -7 8 -9 -10 -12 -13 14 0
-2 -5 6 -8 -10 11 -14 -15 0
-1 3 4 5 -6 7 10 11 12 13 -15 0
1 2 3 -5 6 -11 13 14 15 0
1 -2 3 -4 -8 11 -12 -15 0
3 -5 6 9 -10 -11 -12 13 0
2 3 4 -11 12 -13 14 -15 0
-1 -3 -5 7 9 10 11 12 -13 14 15 0
-1 -2 3 4 -5 6 7 9 11 15 0
-2 3 4 5 6 -7 -8 -9 11 12 -13 14 15 0
3 -4 5 6 -7 8 9 10 11 -13 14 15 0
1 -2 -3 6 -7 9 -10 -11 -13 14 -15 0
1 -2 -5 6 7 10 -11 14 15 0
1 -2 5 8 9 10 11 -12 -13 14 -15 0
-5 8 -10 11 12 13 15 0
-1 -2 -4 6 -7 8 9 -10 11 12 -13 -15 0
1 2 -3 4 -5 -6 -7 8 9 10 -11 -13 -14 15 0
-1 2 3 4 -5 -6 8 9 10 11 14 0
1 -2 -4 5 8 -10 -11 12 0
-2 3 4 5 -6 -7 -8 -10 -13 14 0
-1 2 6 -7 -9 -10 -11 12 13 14 15 0
-2 3 -4 -5 -7 -8 11 12 -14 15 0
-1 2 -3 5 6 9 10 -11 12 15 0
-1 2 -8 -10 12 13 -14 0
1 -3 -4 -6 7 8 -9 -11 -12 13 -15 0
-1 -3 -4 5 -7 9 11 -12 -13 15 0
-1 2 3 4 -5 -7 9 -10 11 12 13 -14 -15 0
-1 3 4 5 7 8 9 -10 11 -12 -13 14 15 0
-1 -2 3 4 11 -12 -14 -15 0
1 -2 -3 4 -6 7 9 -13 14 15 0
2 3 4 5 -6 7 -11 12 -13 -14 15 0
3 6 -7 -9 12 -13 0
-1 -2 3 4 -5 6 9 -10 -11 -12 13 -14 15 0
1 2 3 -4 -6 -7 8 9 -10 -11 -12 14 15 0
3 -4 -5 6 7 8 -9 -10 11 13 -14 0
-2 3 -4 7 -9 15 0
-1 3 5 -6 7 -8 10 -11 13 -14 0
1 2 5 -6 7 -8 9 -11 12 13 -14 0
1 -2 -3 -4 5 -6 -7 -8 -9 10 12 -13 -14 0
-1 2 3 -6 7 -8 -9 12 13 -14 15 0
3 5 -6 -7 -8 -9 -11 -13 -14 -15 0
-3 -4 -6 -7 -8 -9 10 -11 12 -13 -14 0
-1 -2 3 -6 8 -10 11 12 -14 0
1 2 -3 6 7 -8 -9 -11 14 -15 0
3 -4 8 9 -10 13 -14 0
-1 3 -5 6 -8 -9 -10 -12 -13 14 -15 0
-2 4 -5 6 7 8 -10 -12 -14 -15 0
-1 2 -4 5 -6 7 -9 10 -11 12 13 14 0
1 -2 -4 7 -8 9 -10 -11 -13 14 -15 0
1 -2 5 6 7 8 -10 13 14 15 0
-2 -4 6 7 8 -9 10 -13 -14 -15 0
2 -4 6 7 -9 10 13 -14 15 0
1 -4 6 -7 -9 10 11 12 -13 -14 0
3 -5 -8 -11 12 -13 14 0
2 3 -5 -8 9 11 -13 -14 15 0
1 -3 5 10 -11 -13 15 0
-1 2 3 -4 -6 -9 12 -13 -15 0
-1 -2 -4 5 -9 -10 13 14 -15 0
-1 -3 -4 6 -7 -9 10 -12 -13 0
-1 -2 3 -4 5 -6 7 -8 -9 -10 -11 12 -13 14 15 0
1 -2 3 -5 -6 -7 -8 11 12 -14 0
-1 5 6 -7 -8 -9 -10 11 12 -14 0
-1 3 4 5 -6 8 -9 10 -11 12 -14 -15 0
3 -6 -7 10 -12 13 14 15 0
-1 -2 -3 -4 -6 -7 8 9 12 -13 -14 -15 0
2 4 -6 -7 -8 -9 11 12 15 0
5 6 9 12 -13 14 15 0
1 -2 3 4 5 6 7 -8 -9 -10 11 -13 14 -15 0
-1 -4 -5 6 7 8 -9 -10 -11 12 -14 15 0
-1 3 7 -8 12 13 14 0
1 2 3 -4 -5 -6 10 -12 13 -14 0
-2 3 -4 6 7 9 12 13 14 -15 0
1 2 4 -5 6 7 -8 -9 10 -11 -13 14 15 0
3 4 6 7 -9 11 -12 13 15 0
1 -3 -5 6 8 -9 10 -14 15 0
1 2 3 5 -6 7 8 10 -11 -12 14 0
1 2 -3 6 -7 9 -12 13 -14 -15 0
1 -2 3 4 5 -6 7 -10 11 12 -13 -14 0
2 -4 5 7 -10 12 -14 15 0
1 -2 3 -4 -5 6 9 11 -12 14 15 0
-2 -3 7 8 -9 -10 11 12 13 15 0
-1 2 -5 -6 -9 -10 -11 -12 -13 14 -15 0
-1 -2 3 -6 -8 -9 -11 12 13 14 15 0
-1 -3 6 8 9 10 11 14 0
-2 3 4 5 7 -8 -9 -10 -12 13 -15 0
2 3 5 -6 7 -8 -9 -11 14 0
-1 -3 4 -5 -7 11 12 -14 15 0
6 7 -9 -12 -13 -14 0
2 -3 -5 -7 -8 -10 -12 15 0
1 3 5 6 -7 -10 -11 12 -13 -14 0
3 -5 -7 10 -11 -13 14 15 0
1 2 -4 -6 7 9 10 -11 -13 0
1 -2 8 9 -11 12 -13 14 15 0
-1 3 4 -5 6 8 9 -10 12 -13 14 15 0
3 4 5 -6 -7 -8 10 11 -14 15 0
-1 3 -4 -5 -8 9 -10 -11 12 -13 -14 0
-2 -3 4 -6 -9 10 -11 12 -13 -14 15 0
-1 -3 -4 5 -6 -7 -8 -9 -10 12 -13 0
2 4 6 7 -10 11 -12 14 15 0
2 -4 5 6 -8 -9 11 12 14 15 0
3 4 5 6 7 9 -10 -11 -12 -13 -15 0
2 -3 -4 5 12 14 0
-2 -3 5 6 8 -9 -10 -11 12 -13 14 15 0
-1 2 -5 -6 -9 -10 11 -12 13 -14 15 0
3 -4 -5 6 -7 -11 14 0
1 2 -3 -4 5 6 -9 11 -13 14 0
2 -3 4 5 6 -8 9 11 -12 14 -15 0
1 2 6 9 10 12 -13 -14 15 0
-2 3 4 12 14 15 0
-2 3 5 6 -7 -8 9 10 11 -13 15 0
1 -3 -4 -5 -6 -7 -8 -9 10 12 13 -14 15 0
-1 -2 -3 4 -5 -8 10 12 15 0
